(set-info :source |printed by MathSAT|)
(declare-fun call_synapse.ite16 () Int)
(declare-fun _OK_ () Bool)
(declare-fun call_synapse.ite9 () Int)
(declare-fun call_synapse.ite13 () Int)
(declare-fun call_synapse.ite7 () Int)
(declare-fun call_synapse.ite12 () Int)
(declare-fun call_synapse.ite14 () Int)
(declare-fun call_Sofar.flby () Bool)
(declare-fun call_synapse.ite11 () Int)
(declare-fun mem_init_s () Int)
(declare-fun call_synapse.flby () Int)
(declare-fun call_synapse.garde_s2 () Bool)
(declare-fun call_synapse.dirty_s () Int)
(declare-fun call_synapse.ite3 () Int)
(declare-fun call_synapse.invalid_s () Int)
(declare-fun call_synapse.mem_init_s () Int)
(declare-fun call_synapse.ite4 () Int)
(declare-fun param_init_invalid_s () Int)
(declare-fun call_synapse.flby4 () Int)
(declare-fun call_synapse.ite18 () Int)
(declare-fun call_First.flby () Int)
(declare-fun call_synapse.valid_s () Int)
(declare-fun call_First.First () Int)
(declare-fun call_synapse.flby3 () Int)
(declare-fun call_synapse.ite15 () Int)
(declare-fun call_synapse.garde_s3 () Bool)
(declare-fun invalid_s () Int)
(declare-fun param_e_s3 () Bool)
(declare-fun call_excludes3.excludes () Bool)
(declare-fun valid_s () Int)
(declare-fun call_synapse.ite10 () Int)
(declare-fun call_synapse.ite5 () Int)
(declare-fun call_synapse.ite2 () Int)
(declare-fun param_e_s2 () Bool)
(declare-fun dirty_s () Int)
(declare-fun call_synapse.garde_s1 () Bool)
(declare-fun call_synapse.flby2 () Int)
(declare-fun call_synapse.ite () Int)
(declare-fun call_Sofar.Sofar () Bool)
(declare-fun call_synapse.ite17 () Int)
(declare-fun env () Bool)
(declare-fun param_e_s1 () Bool)
(declare-fun call_synapse.ite6 () Int)
(declare-fun call_synapse.ite8 () Int)
(define-fun .def_595 () Bool (= call_First.flby call_First.First))
(define-fun .def_593 () Bool (= call_Sofar.flby call_Sofar.Sofar))
(define-fun .def_588 () Bool (and param_e_s3 param_e_s2))
(define-fun .def_586 () Bool (and param_e_s3 param_e_s1))
(define-fun .def_585 () Bool (and param_e_s1 param_e_s2))
(define-fun .def_587 () Bool (or .def_585 .def_586))
(define-fun .def_589 () Bool (or .def_587 .def_588))
(define-fun .def_590 () Bool (not .def_589))
(define-fun .def_591 () Bool (= call_excludes3.excludes .def_590))
(define-fun .def_583 () Bool (= call_synapse.flby call_synapse.mem_init_s))
(define-fun .def_581 () Bool (= call_synapse.flby4 call_synapse.dirty_s))
(define-fun .def_579 () Bool (= call_synapse.flby3 call_synapse.valid_s))
(define-fun .def_577 () Bool (= call_synapse.flby2 call_synapse.invalid_s))
(define-fun .def_573 () Bool (= call_synapse.ite16 call_synapse.ite17))
(define-fun .def_574 () Bool (or param_e_s2 .def_573))
(define-fun .def_570 () Bool (= call_synapse.ite14 call_synapse.ite17))
(define-fun .def_561 () Bool (not param_e_s2))
(define-fun .def_571 () Bool (or .def_561 .def_570))
(define-fun .def_567 () Bool (= call_synapse.ite10 call_synapse.ite11))
(define-fun .def_568 () Bool (or param_e_s2 .def_567))
(define-fun .def_564 () Bool (= call_synapse.ite8 call_synapse.ite11))
(define-fun .def_565 () Bool (or .def_561 .def_564))
(define-fun .def_560 () Bool (= call_synapse.ite5 call_synapse.ite2))
(define-fun .def_562 () Bool (or .def_560 .def_561))
(define-fun .def_556 () Bool (= call_synapse.ite4 call_synapse.ite5))
(define-fun .def_558 () Bool (or .def_556 param_e_s2))
(define-fun .def_563 () Bool (and .def_558 .def_562))
(define-fun .def_566 () Bool (and .def_563 .def_565))
(define-fun .def_569 () Bool (and .def_566 .def_568))
(define-fun .def_572 () Bool (and .def_569 .def_571))
(define-fun .def_575 () Bool (and .def_572 .def_574))
(define-fun .def_552 () Bool (= call_synapse.ite18 call_synapse.ite17))
(define-fun .def_553 () Bool (or param_e_s1 .def_552))
(define-fun .def_548 () Bool (= call_synapse.ite13 call_synapse.ite18))
(define-fun .def_535 () Bool (not param_e_s1))
(define-fun .def_549 () Bool (or .def_535 .def_548))
(define-fun .def_544 () Bool (= call_synapse.ite12 call_synapse.ite11))
(define-fun .def_545 () Bool (or param_e_s1 .def_544))
(define-fun .def_540 () Bool (= call_synapse.ite7 call_synapse.ite12))
(define-fun .def_541 () Bool (or .def_535 .def_540))
(define-fun .def_534 () Bool (= call_synapse.ite6 call_synapse.ite))
(define-fun .def_536 () Bool (or .def_534 .def_535))
(define-fun .def_530 () Bool (= call_synapse.ite6 call_synapse.ite5))
(define-fun .def_532 () Bool (or .def_530 param_e_s1))
(define-fun .def_537 () Bool (and .def_532 .def_536))
(define-fun .def_542 () Bool (and .def_537 .def_541))
(define-fun .def_546 () Bool (and .def_542 .def_545))
(define-fun .def_550 () Bool (and .def_546 .def_549))
(define-fun .def_554 () Bool (and .def_550 .def_553))
(define-fun .def_526 () Bool (= env call_Sofar.Sofar))
(define-fun .def_523 () Bool (= call_synapse.mem_init_s mem_init_s))
(define-fun .def_520 () Bool (= dirty_s call_synapse.dirty_s))
(define-fun .def_517 () Bool (= valid_s call_synapse.valid_s))
(define-fun .def_514 () Bool (= invalid_s call_synapse.invalid_s))
(define-fun .def_506 () Int (* (- 1) call_First.First))
(define-fun .def_507 () Int (+ dirty_s .def_506))
(define-fun .def_508 () Int (+ valid_s .def_507))
(define-fun .def_509 () Int (+ invalid_s .def_508))
(define-fun .def_510 () Bool (= .def_509 0))
(define-fun .def_495 () Bool (not env))
(define-fun .def_511 () Bool (or .def_495 .def_510))
(define-fun .def_512 () Bool (= _OK_ .def_511))
(define-fun .def_515 () Bool (and .def_512 .def_514))
(define-fun .def_518 () Bool (and .def_515 .def_517))
(define-fun .def_521 () Bool (and .def_518 .def_520))
(define-fun .def_524 () Bool (and .def_521 .def_523))
(define-fun .def_527 () Bool (and .def_524 .def_526))
(define-fun .def_555 () Bool (and .def_527 .def_554))
(define-fun .def_576 () Bool (and .def_555 .def_575))
(define-fun .def_578 () Bool (and .def_576 .def_577))
(define-fun .def_580 () Bool (and .def_578 .def_579))
(define-fun .def_582 () Bool (and .def_580 .def_581))
(define-fun .def_584 () Bool (and .def_582 .def_583))
(define-fun .def_592 () Bool (and .def_584 .def_591))
(define-fun .def_594 () Bool (and .def_592 .def_593))
(define-fun .def_596 () Bool (and .def_594 .def_595))
(define-fun .def_491 () Bool (= param_init_invalid_s call_First.flby))
(define-fun .def_484 () Bool (<= 0 param_init_invalid_s))
(define-fun .def_486 () Bool (and .def_484 call_excludes3.excludes))
(define-fun .def_488 () Bool (= .def_486 call_Sofar.flby))
(define-fun .def_482 () Bool (= call_synapse.flby4 0))
(define-fun .def_479 () Bool (= call_synapse.flby3 0))
(define-fun .def_476 () Bool (= call_synapse.flby2 call_synapse.mem_init_s))
(define-fun .def_472 () Bool (= param_init_invalid_s call_synapse.flby))
(define-fun .def_466 () Bool (= call_synapse.ite9 0))
(define-fun .def_464 () Bool (not call_synapse.garde_s3))
(define-fun .def_467 () Bool (or .def_464 .def_466))
(define-fun .def_462 () Bool (= call_synapse.ite15 1))
(define-fun .def_465 () Bool (or .def_462 .def_464))
(define-fun .def_468 () Bool (and .def_465 .def_467))
(define-fun .def_458 () Bool (= call_synapse.ite8 0))
(define-fun .def_455 () Bool (not call_synapse.garde_s2))
(define-fun .def_459 () Bool (or .def_455 .def_458))
(define-fun .def_453 () Bool (= call_synapse.ite14 1))
(define-fun .def_456 () Bool (or .def_453 .def_455))
(define-fun .def_460 () Bool (and .def_456 .def_459))
(define-fun .def_449 () Bool (= call_synapse.ite13 0))
(define-fun .def_447 () Bool (not call_synapse.garde_s1))
(define-fun .def_450 () Bool (or .def_447 .def_449))
(define-fun .def_443 () Bool (= call_synapse.ite15 call_synapse.ite16))
(define-fun .def_434 () Bool (not param_e_s3))
(define-fun .def_444 () Bool (or .def_434 .def_443))
(define-fun .def_438 () Bool (= call_synapse.ite3 call_synapse.ite4))
(define-fun .def_439 () Bool (or .def_434 .def_438))
(define-fun .def_432 () Bool (= call_synapse.ite9 call_synapse.ite10))
(define-fun .def_435 () Bool (or .def_432 .def_434))
(define-fun .def_440 () Bool (and .def_435 .def_439))
(define-fun .def_445 () Bool (and .def_440 .def_444))
(define-fun .def_451 () Bool (and .def_445 .def_450))
(define-fun .def_461 () Bool (and .def_451 .def_460))
(define-fun .def_469 () Bool (and .def_461 .def_468))
(define-fun .def_473 () Bool (and .def_469 .def_472))
(define-fun .def_477 () Bool (and .def_473 .def_476))
(define-fun .def_480 () Bool (and .def_477 .def_479))
(define-fun .def_483 () Bool (and .def_480 .def_482))
(define-fun .def_489 () Bool (and .def_483 .def_488))
(define-fun .def_492 () Bool (and .def_489 .def_491))
(define-fun .def_597 () Bool (and .def_492 .def_596))
(assert .def_597)
